CPXPARAM_Read_DataCheck                          1
Found incumbent of value 0.000000 after 0.00 sec. (0.08 ticks)
Tried aggregator 1 time.
MIP Presolve modified 1 coefficients.
Reduced MIP has 333 rows, 3010 columns, and 15034 nonzeros.
Reduced MIP has 3010 binaries, 0 generals, 0 SOSs, and 0 indicators.
Presolve time = 0.00 sec. (5.34 ticks)
Tried aggregator 1 time.
Reduced MIP has 333 rows, 3010 columns, and 15034 nonzeros.
Reduced MIP has 3010 binaries, 0 generals, 0 SOSs, and 0 indicators.
Presolve time = 0.02 sec. (6.44 ticks)
Probing time = 0.02 sec. (3.72 ticks)
Clique table members: 10577.
MIP emphasis: balance optimality and feasibility.
MIP search method: dynamic search.
Parallel mode: deterministic, using up to 4 threads.
Root relaxation solution time = 0.02 sec. (12.22 ticks)

        Nodes                                         Cuts/
   Node  Left     Objective  IInf  Best Integer    Best Bound    ItCnt     Gap

*     0+    0                            0.0000    18432.0000              --- 
*     0+    0                          316.0000    18432.0000              --- 
      0     0    10112.2567    10      316.0000    10112.2567      632     --- 
*     0+    0                         5002.0000    10112.2567           102.16%
      0     0    10071.4500    10     5002.0000  Cliques: 183      658   88.61%
      0     0    10061.9265    18     5002.0000     Cuts: 183      682   88.61%
*     0+    0                         5697.0000     9434.4117            65.60%
*     0+    0                         5701.0000     7234.5800            26.90%
      0     2    10061.9265    18     5701.0000     7234.5800      682   26.90%
Elapsed time = 0.45 sec. (221.20 ticks, tree = 0.01 MB, solutions = 5)
*   160+   51                         5707.0000     7234.5800            26.77%

Clique cuts applied:  358
Implied bound cuts applied:  2

Root node processing (before b&c):
  Real time             =    0.45 sec. (220.56 ticks)
Parallel b&c, 4 threads:
  Real time             =    0.16 sec. (95.85 ticks)
  Sync time (average)   =    0.01 sec.
  Wait time (average)   =    0.00 sec.
                          ------------
Total (root+branch&cut) =    0.61 sec. (316.41 ticks)
